TCS_Benchmarks/redos_fix/corpus1_output_distinct_3555_3554_8_0.txt
.*
(.*)(brick_.*(n?)_wg)(.*)
.*